
Gurobi 8.1.1 (win64, Python) logging started 01/05/20 22:02:36

Academic license - for non-commercial use only

Gurobi 8.1.1 (win64, Python) logging started 01/05/20 22:17:02

Academic license - for non-commercial use only

Gurobi 8.1.1 (win64, Python) logging started 01/05/20 22:33:10

Academic license - for non-commercial use only

Gurobi 8.1.1 (win64, Python) logging started 01/05/20 22:34:45

Academic license - for non-commercial use only

Gurobi 8.1.1 (win64, Python) logging started 01/05/20 22:35:12

Academic license - for non-commercial use only

Gurobi 8.1.1 (win64, Python) logging started 01/05/20 22:38:06

Academic license - for non-commercial use only

Gurobi 8.1.1 (win64, Python) logging started 01/05/20 22:40:44

Academic license - for non-commercial use only

Gurobi 8.1.1 (win64, Python) logging started 01/05/20 22:46:25

Academic license - for non-commercial use only

Gurobi 8.1.1 (win64, Python) logging started 01/05/20 22:46:49

Academic license - for non-commercial use only

Gurobi 8.1.1 (win64, Python) logging started 01/05/20 22:48:27

Academic license - for non-commercial use only

Gurobi 8.1.1 (win64, Python) logging started 01/05/20 22:49:23

Academic license - for non-commercial use only

Gurobi 8.1.1 (win64, Python) logging started 01/05/20 22:49:30

Academic license - for non-commercial use only

Gurobi 8.1.1 (win64, Python) logging started 01/05/20 22:50:31

Academic license - for non-commercial use only

Gurobi 8.1.1 (win64, Python) logging started 01/05/20 22:52:21

Academic license - for non-commercial use only

Gurobi 8.1.1 (win64, Python) logging started 01/05/20 23:14:19

Academic license - for non-commercial use only

Gurobi 8.1.1 (win64, Python) logging started 01/05/20 23:19:08

Academic license - for non-commercial use only

Gurobi 8.1.1 (win64, Python) logging started 01/05/20 23:21:07

Academic license - for non-commercial use only

Gurobi 8.1.1 (win64, Python) logging started 01/06/20 08:36:03

Academic license - for non-commercial use only

Gurobi 8.1.1 (win64, Python) logging started 01/06/20 08:37:12

Academic license - for non-commercial use only

Gurobi 8.1.1 (win64, Python) logging started 01/06/20 08:38:01

Academic license - for non-commercial use only

Gurobi 8.1.1 (win64, Python) logging started 01/06/20 08:39:25

Academic license - for non-commercial use only
